NAME : pr152.51576.tour
COMMENT : Length = 51576
COMMENT : Found by LKH [Keld Helsgaun] Wed May 29 17:05:41 2013
TYPE : TOUR
DIMENSION : 31
TOUR_SECTION
36
34
14
13
5
12
6
11
7
10
18
43
66
88
82
87
83
61
84
110
118
119
120
121
123
114
90
72
78
92
51
-1
EOF
